problems/csplib-prob015/SchursLemma-models/noch/O2/lingeling/model_1_3-3-17-solution000001.solution
language Essence 1.3

letting boxes be partition({1, 2, 12}, {3, 4, 5, 6, 15, 16, 17}, {7, 8, 9, 10, 11, 13, 14})
