problems/csplib-prob015/SchursLemma-models/noch/O2/minion/model_1_3-3-17-solution000001.eprime-solution
language ESSENCE' 1.0

letting boxes_PartitionAsSet_ExplicitR5_ExplicitVarSizeWithMarker_Marker be [2, 7, 8; int(1..3)]
letting boxes_PartitionAsSet_ExplicitR5_ExplicitVarSizeWithMarker_Values be
        [[1, 2, 1, 1, 1, 1, 1, 1, 1, 1, 1, 1, 1, 1, 1, 1, 1; int(1..17)],
         [3, 4, 5, 6, 15, 16, 17, 1, 1, 1, 1, 1, 1, 1, 1, 1, 1; int(1..17)],
         [7, 8, 9, 10, 11, 12, 13, 14, 1, 1, 1, 1, 1, 1, 1, 1, 1; int(1..17)]; int(1..3)]
